
 102   30
  10   10   10   10   10   10   10   10   10   10   10   10   10   10   10   10   10   10   10   10   10   10   10   10   10   10   10   10   10   10

   0   0   0   0   0   0   0   0   0   0   0   0   0   0   0   0   0   0   0   0   0   0   0   0   0   0   0   0   0   0   0  26 2 3 4 5 6 7 8 9 10 11 12 13 14 15 16 18 19 21 22 23 24 32 38 39 41 47 
   8   0   0   0   0   0   0   0   0   0   0   0   0   0   1   0   0   0   0   0   0   0   0   0   0   0   0   0   0   0   0  13 101 64 58 56 52 50 48 44 40 29 28 26 17 
   2   0   0   0   0   0   0   0   0   0   0   0   0   0   0   1   0   0   0   0   1   0   1   0   0   0   0   0   0   0   0  18 101 100 76 73 71 65 58 54 52 48 46 44 43 33 31 30 28 27 
   4   0   0   3   0   0   2   0   0   0   0   0   0   0   0   0   0   0   0   5   0   0   0   0   1   1   3   0   0   0   0  20 101 100 77 76 75 73 71 63 62 61 59 58 55 52 50 49 43 40 33 31 
  10   0   0   0   0   0   3   0   0   0   0   0   2   0   0   0   0   0   2   7   0   0   0   0   0   0   0   0   0   0   1  11 100 76 73 56 55 52 36 33 30 27 17 
   8   0   1   0   0   0   0   0   0   0   0   0   0   1   6   0   0   0   0   0   0   0   0   1   0   5   0   0   0   0   7  15 101 100 76 75 64 63 59 55 54 52 48 43 40 33 25 
   1   0   0   0   0   0   0   0   0   0   0   2   7   0   0   0   0   0   0   0   0   0   0   0   0   0   0   0   0   0   6  12 100 72 58 55 54 53 52 51 48 46 36 25 
   2   0   0   0   1   0   0   0   0   0   0   0   0   0   4   0   0   0   0   0   0   0   6   0   0   0   0   0   0   0   0  17 101 100 76 74 73 71 63 58 57 56 54 53 52 48 45 44 27 
   9   0   0   0  10   0   7   0   0   0   0   0   0   0   7   0   0   0   0   0   0   0   0   0   0   0   0   0   2   0   0   9 96 71 56 48 46 45 44 27 20 
   4   0   0   6   0   0   0   0   1   0   0   0   0   0   0   0   0   0   0   3   0   0   7   0   0  10   0   0   0   0   0  14 74 73 72 70 62 61 58 55 52 51 50 46 44 30 
   2   0   0   0   0   0   0   0   0   0   0   0   0   0   0   0   0   0   0   0   0   0   0   0   0   5   0   3   0   0   0  15 98 72 71 69 65 62 61 59 56 51 48 46 43 35 28 
   9   1   0   0   0   1   9   0   0   0   0   0   0   0   8   0   0   0   0   0   0   0   0   0   7   3   0   0   0   2   0  15 101 98 97 71 68 65 62 61 53 52 46 45 37 34 28 
   6   0   0   0   7   0   0   0   0   0   1   0   0   0   0   0   0   0   0   0   0   1   8   0   0   0   0   0   0   0   0  12 101 95 77 71 59 58 55 52 51 45 33 29 
   6   0   0   0   0   0   6   0   0   0   0   0   5   8   0   0   0   0   0   0   0   0   0   0   0   0   0   0   0   0   0  19 101 100 98 96 86 73 72 71 70 69 63 61 60 58 57 56 55 50 43 
   9   0   0   0   0   0   0   0   0   0   0   0   0   6   0   0   0   0   0   0   0   0   0   0   0   0   0   0   0   6   0  16 92 76 73 72 71 70 64 63 62 61 59 57 53 45 43 35 
   3   0   0   0   0   0   6   0   0   0   0   0   0   0   0   0   0   0   0   0   0   0   0   3   0   0   0   0   0   0   0  12 92 75 64 63 61 59 58 55 53 44 42 33 
  10   0   0   0   5   0   0   0   0   0   0   0   6   0   0   0   0   0   0   0   0   0   0   0   0   0   0   0   0   0   0  14 98 92 75 74 72 71 70 61 60 59 54 53 46 35 
   9   0   0   8   0   0   0   0   0   0   0   0   0   0   0   0   0   0   0   0   0   0   0   0   0   0   0   0   0   0   0  19 101 100 99 98 96 93 92 91 75 74 73 71 70 62 61 60 59 53 46 
   6   0   0   0   0   0   0   0   0   0   0   0   0   7   0   1   0   0   0   0   0   0   0   0   0   0   0   0   0   0   0  12 100 91 74 70 65 63 61 58 55 54 44 30 
   8   0   0   0   0   0   0   0   0   2   6   0  10   6   0   0   0   0   8   0   0   0   0   0   0   0   0   0   0   0   0  12 100 95 92 86 76 73 68 63 59 55 43 33 
   7   4   0   0   0   0   9   0   4   0   0   8   0   0   4   0   0   0   0  10   0   0   0   0   0   0   0   0   8   0   0  21 101 99 98 97 95 94 92 91 90 89 88 87 86 84 77 71 70 65 63 60 59 
  10   0   0   0   0   0   0   0   0   0   0   0   0   0   0   0   1   0   0   0   0   0   0   0   0   0   0   0   0   3   0  16 98 97 96 95 93 92 91 88 82 75 68 62 59 57 55 53 
   7   0   0   0   0   9   0   0   0   0   0   0   9   0   0   0   4   0   0   0   0   0   0   0   6   0   0   0   0   0   0  12 101 99 98 92 86 84 76 72 69 57 55 43 
  10   0   0   0   8   0   0   0   0   0   0   0   0   0   0   0   6   0   0   0   0   0   0   0   9   0   0   0   0   0   0  15 99 98 95 94 90 89 88 87 86 85 84 74 67 57 48 
   5   0   0   0   0   0   0   0   0   0   0   0   0   0   0   0   0   0   3   0   0   0   0   0   0   0   0   0   0   0   0  16 97 95 93 90 85 84 74 73 71 70 69 68 66 65 61 57 
   7   0   0   0   0   0   0   0   7   0   0   0   0   6   0   0   5   0   0   0   0   0   0  10  10   0   0   0   0   0   5  19 100 99 95 94 93 91 89 88 87 86 83 80 74 71 70 68 67 66 63 
   1   0   0   0   0   0   0   0   0   3   0   0   2   8   0   0   0   0   0   8   0   0   0   0   0   5   0   0   0   0   0  15 94 93 92 91 90 89 88 87 86 85 82 75 69 60 59 
   2   0   0   4   0   4   0   4   0   0   0   0   0   0   0   0   0   0   0   0   0   7   0   0   0   0   8   6   0   5   0  13 95 93 92 91 88 87 86 84 82 70 63 57 55 
   1   0   0   0   0   0   6   0   0   0   0   0   0   0   0   0   0   0  10   0   0   0   0   0   0   0   0   0   0   0   4  15 94 93 92 91 90 87 85 84 82 76 73 69 68 67 57 
   3   0   0   7   0   0   0   0   0   0   0   6   0   0   0   0   0   0   0   0   0   0   0   0   0   0   0   0   0   0   0  10 98 97 96 93 89 83 82 66 59 53 
   9   0   0   0   0   0   0   0   0   0   0   0   0   0   0   0   0   0   0   0   0   5   0   0   0  10   0   0   0   0   0  14 97 96 95 92 90 89 88 86 85 80 78 74 64 60 
  10   0   0   0   0   0   0   0   0   0   0   0   0   0   0   0   0   0   0   8  10   0   7   0   0   0   0   0   0   9   0  10 101 97 91 90 86 84 82 76 57 55 
   3   0   0   0   0   0   0   0   0   0   0   0   0   8   0   0   0   0   0   7   7   0   0   5   0   0   0   3   0   0   0  14 98 97 93 91 90 89 85 84 82 72 70 67 66 57 
   2   0   0   0   0   0   0   0   0   0   0   0   0   0   0   0   0   0   0   0   0   0   0   8   0   0   0   0   0   8   0   9 96 91 90 86 82 75 63 57 55 
   9   0   8   0   0   0   0   0   0   0   7   0   0   0   0   0   0   0   0   0   0   0   0   0   0   0   0   8   0   0   0  16 97 96 95 94 93 91 89 88 87 85 84 83 82 81 68 66 
   4   0   6   0   9   0   0   0   0   6   5   3   5   0   0   0   5   0   0   8   0   0   0   0   0   4   0   0   0   5   0  13 98 97 94 92 91 86 84 83 82 71 68 66 59 
   9   0   0   4   0   0   0   0   0   3   0   0   0   0   0   5   0   0   0   0   0   0   0   0   4   0   7   0   0   0   0  12 100 96 93 89 88 87 85 82 69 67 66 57 
   2   0   0   0   0   0   0   0   0   0   0   0   0   0   0   0   7   3   0   5   4   0   0   0   0   0   0   8   8   0   0  10 96 95 92 87 86 84 82 81 69 55 
  10   0   0   6   0   0   0   0   0   0   0   0   0   0   0   0   0   0   0   0   0   0   0   0   0   8   0   0   0   5   7  12 94 90 88 87 86 85 80 79 74 71 69 64 
   1   0   5   0   0   0   0   4   5   0   0   0   0   0   0   0   0   0  10   0   0   0   0   0   0   0   0   0   0   0   0  10 93 92 91 88 87 86 85 69 66 57 
   1   0   0   0   0   0   0   0   0   0   0   0   0   0   0   0   0   0   0   4   3   0   6   0   0   0   0   0   0   0   0  10 99 95 92 91 90 88 87 85 72 59 
   5   0   0   0   0   0   0   0   0   0   0   0   0   0   5   0   0   0   0   0   0   0   0   6   0   0   0   4   5   0   0  13 96 91 90 88 87 86 85 84 82 81 80 69 68 
  10   0   0   0   0   0   0   0   0   0   0   0   0   6   0   0   0   0   0   0   0   0   8   0   0   0   4   0   5   0   0  12 94 93 91 90 89 87 85 82 81 80 67 66 
   3   0   0   0   0   0   0   7   8   0   0   0   0   2   0   0   0   0   0   0   0   6   0   0   0   0   0   0  10   7   0   8 98 97 95 86 84 80 67 60 
   9   0   8   0   0   0   0   6   0   0   0   0   0  10   0   0   9   0   0   0   0   0   0   0   0   0   0  10   6   0   0  11 99 94 90 88 87 86 85 84 80 79 78 
   8   0   0   0   0   0   0   0   0   0   0   0   0  10   0   0   6   4   0   0   0   6   0   0   3   0   0   0   0   0   0   5 84 82 66 63 57 
   6   0   0   0   0   3   0   7   0   0   0   0   0   0   0   6   0   0   0   0   6   0   0   0   0   0   0   5   0   0   0   8 92 89 88 87 83 80 70 66 
   1   0   0   0   0   0   0   0   0   0   0   0   0   0   0   0   3   6   0   4   0   0   7   0   0   0   0   7   0   0   0   5 92 82 70 68 60 
   4   0   0   0   0   0   0   0   0   0   0   0   0   4   0   0   0   0   0   9   0   0   6   0   0   0   0   0   0   0   0   9 99 96 95 90 89 87 84 81 78 
   9   7   0   0   2   0   7   0   0   0   0   0   0   0   0   0   0   0   0   0   0   0   0   0   0   5   0   0   0   0   0   7 99 95 92 88 83 68 66 
   9   0   0   1   0   0   5   0   0   0   0   0   0   0   0   0   0  10   5   0   0   8   4   0   0   0   4   8   0   0   0   6 87 81 80 79 68 64 
  10   0   0   0   0   0   0   0   0   0   0   0   0   0   0   0   0   0   0   0   0   0   0   0   0   0   0   0   0   0   0   8 99 96 91 90 86 83 80 78 
   7   0   8   0   0   0   0   0   0   0   0   0   5   0   0   0   0   0   0   0   7   0   0   0   0   0   0   0   0   0   4   6 90 87 86 85 84 69 
   7   0   0   0   0   8   0   6   0   0   0   0   0   0   0  10   0   0   0   0   0   0   0   0   0   0   0   0   0   3   0   6 97 86 83 82 81 68 
   2   0   0   0  10   0   0   0   0   0   0   0   5   0   0   0   0   0   3   0   0   9   0   0   0   0   0   0   0   0   0   5 89 85 80 67 66 
   3   0   0   0   0   0   0   0   0   0   0   0   0   5   0   0   0   8   0   0   0   0   0   0   0   0   0   0   0   0   0   6 99 93 89 82 80 79 
   8   0   0   0   0   9   0   0   9   0   0   0   0   0   0   0   0   0   0   0   0   0   0   0   0   0   0   0   0   8   0   4 83 81 80 79 
   5   0   0   0   0   0  10   0   0   0   0   0   0   0   0   0   0   0   0   0   0   0   0   0   0   0   0   0   0   0   7   4 94 90 84 80 
   6   0   0   9   0   0   6   0   0   0   0   0   6   0   8   0   0   0   9   0   6   0   0   8   0   0   0   0   0   0   0   3 81 80 67 
   3   0   0   0   0   0   0  10   9  10   0   0   0   0   7   0   8   0   0   0   0   0   0   0   0   0  10   3   0   0   0   3 83 81 66 
   6   0   4   0   0   0   0   6   0   0   0   0   0   0   8   0   0   0   0   0   0   0   0   0   0   0   0   0   0   0   0   3 89 88 79 
  10   0   0   0   0   0   0   0   0   7   4   0   0   0   0   0   0  10   0   0   0   0   0   0   0   0   0   0   0   0   0   3 94 86 79 
   2   0   0   0   0   0   0   0   0   0   0   0   7   0   0   0   0   0   0   5   0   0   0   0   0   0   0   0   5   0   0   2 85 78 
   8   3   6   0   0   0   0   0   0   0   0   0   0   0   0   0   0   0   0   0   0   0   0   0   0   0   0   0   0   0   0   2 84 82 
   4   0   0   0   0   0   0   0   0   0   0   0   0   4   0   0   0   0   0   0   0   0   0   0   0   0   0   0   0   0   0   2 96 78 
   3   0   0   0   0   0   0   0   0   0   0   0   0   0   0   0   8   0   0   0   0   0   0   7   0   0   0   0   0   0   0   1 79 
   9   0   0   0   0   0   0   0   0   0   0   0   6   0   7   0   0   0   0   0   0   0   0   0   0   0   0   0   0   0   0   1 78 
   8   0   5   0   0   0   0   0   0   0   0   3   0   0   0   7   0   0   5   0   0   0   0   0   0   7   0   7   9   0   8   1 78 
   1   0   0   0   0   0   0   0   0   0   0   0   0   0   4   0   0   0   0   0   0   0   0   5   6  10   0   0   0   6   0   1 78 
   5   0   0   0   0   0   0   0   5   0   0   0   0   0   0   0   0   0   0   0   0   0   0   0   0   0   0   0   0   0   0   1 81 
   6   0   0   0   0   0   0   0  10   0   0   0   5   0   0   0   0   0   9   0   0   0   0   0   0   0   0   0   0   0   0   1 78 
   5   0   0   0   0   0   0   0   0   0   0   0   7   7   0   0   0   0   0   0   0   0   0   0   0   0   0   0   0   0   0   1 83 
   6   4   0   0   0   6   0   5   0   0   0   0   9   2   0   0   0   0   0   0   0   0   0   0  10   0   0   5   4   0   0   1 79 
   7   8   7   0   0   0   0   0   4   4   0   0   0   6   0   0   0   0   0   0   0   0   6   0   0   0   0   5   0   0   0   1 82 
   2   8   0   0   5   0   0   0   0   0   8   0   7   7   0   6   0   0   0   0   0   0   0   0   0   0   0   0   0   0   6   1 84 
   8   0   0   0   6   0   0   0   0   0   0   0   0   0   0   6   0   0   0   0   0   8   0   0   0   0   0   0   0   0   7   1 88 
   2   0   0  10   0   0   0   0   0   0   6   0   0   0   0   0   0   0   0   0   0   0   0   0   0   0   0   0   5   0   0   1 82 
   4   0   0   0   0   0   0   0   0   0   0   0   0   0   0   0   0   0   0   0   0   0   0   0   0   0   0   0   0   8   0   1 102
  10   9   0   0   0   0   0   0   0   0   0   0   0   0   0   0   9   0   4   0   0   6   0   0   0   0   0   0   6   0   0   1 102
   1   0   0   0   0   0   0   0   0   7   0   0   0   0   0   0   6   3   0   0   0   0   0   0   0   0   0   0   0   0   0   1 102
   7   7   0   4   0   0   0   0   0   0   5   0   0   0   0   0   0   4   0   0   0   0   0   0   0   0   0   5   0   0   0   1 102
   4   0   0   0   0   8   0   0   0   0   0   0   0   0   0   0   0   0   0   0   8   0   0   0   0   0   0   0   0   0   0   1 102
   9   0   0   0   0   4   0   0   0   0   0   0   0   4   0   0   6   0   8   0   0   0   0   0   0   0   0   0   0   0   0   1 102
   3   0   0   0   3   0   2   0   0   0   0   3   0   0   0   0   0   0   0   4   0   0   0   0   0   0   7   0   0   0   0   1 102
   7   0   0   0   0   8   0   0   0   0   0   8   5   0   0   0   0   0   0   0   0   0   0   0   0   0   5   0   3   0   0   1 102
  10   0   8   0   0   0   0   0   0   0   0   0   0   0   0   0   0   0   0   0   8   0   0   0   5   0   0   0   0   0   0   1 102
   3   0   0   0   0   0   0   0   5   0   0   0   0   0   0  10   0   0   0   0   0   0   0   0   0   0   0   6   0   0   0   1 102
   8   0  10  10   0   0   0   0   0   0   0   0   6   7   0   0   7   0   2   0   0   0   0   0   0   0   0   0   0   0   0   1 102
   1   0   0   0   4   5   0   0   0   8   0   0   0   0   0   0   0   0   0   2   0   0   0   7   0   0   0   0   0   0   0   1 102
   5   0   0   0   0   7   0   0   0   0   0   0   0   0   0   0   0   0   0   0   0   0   0   0   0   0   0   0   6   0   0   1 102
  10   6   0   0   0   0   0   0   0   0   0  10   0   9   0   0   0   0   0   0   0   0   6   0   7   0   0   0   0   0   0   1 102
   9   0   6   0   0   0   0   0   0   0   0   0   0   5   0   0   0   0   0   0   0   0   0   0   0   5   0   0   0   0   0   1 102
   9   0   0   0   9   0   0   0   0   0   9   0   0   0   0   0   0   0   0   0   0   0   0   0   0   0   0   0   0   0   0   1 102
   4   0   0   0   0   0   0   0   0   0   0   0   0   0   0   0   0   0   0   7   0   5   0   0   0   0   0   8   0   0  10   1 102
   4   0   0   7   0   0   0   0   5   0   0   0   0   0   0   0   0   0   0   0   0   0   0   0   0   0   0   0   0   0   0   1 102
   3   0   0   0   0   0   0   0   0   0   0   8   2   0   0   0   0   0   0   0   6   7   0   0   0   0   0   0   8   5   0   1 102
   4   0   0   0   0   6   0   0   0  10   0   0  10   0   0   0   0   0   0   0   0   0   0   0   4   0   0   0   0   0   0   1 102
   3   0   0   5   0   0   0   0   0   0   9   0   0   0   0   0   0   0   0   0   0   0   0   0   0   0   0   0   0   0   0   1 102
   9   0   2   0   5   0   0   0   0   0   0   0   0   0   0   0   0   6   0   0   0   0   0   0   0   0   0   7   0   0   0   1 102
   4   9   0   0   0   0   0   0   0   0   0   9   0   0   9   6   0   0   0   0   0   0   0   0   0   0   0   0   0  10   0   1 102
   6   0   0   0   0   0   0   5   0   0   0   0   0   0   0   8   0   0   0   0   0   4   0   0   0   0   0   0   0   0   0   1 102
   0   0   0   0   0   0   0   0   0   0   0   0   0   0   0   0   0   0   0   0   0   0   0   0   0   0   0   0   0   0   0   0 
